Maximize
  - 1.3333480531937 edge_0_3_0_0 - 3.312135525824 edge_0_5_0_0
   - 0.8247888983715999 edge_0_6_0_0 - 2.3422651496156 edge_0_11_0_0
   + 0.0508343557657145 edge_3_5_0_0 + 0.2338334063948758 edge_3_6_0_0
   - 0.038689670523506 edge_3_11_0_0 - 0.0830663854173135 edge_3_26_0_0
   + 0.3066272832300022 edge_5_3_0_0 + 0.2343461266966055 edge_5_6_0_0
   - 0.1754864439225223 edge_5_8_0_0 - 0.1821739332786 edge_5_11_0_0
   - 0.2980383467913489 edge_5_26_0_0 + 2.371921680582695 edge_5_32_0_0
   + 1.244165019313989 edge_6_3_0_0 + 1.569556934868437 edge_6_5_0_0
   + 0.1806148084807362 edge_6_8_0_0 + 1.279532112995709 edge_6_11_0_0
   - 0.4848034236135519 edge_6_13_0_0 - 0.3109912975679244 edge_6_16_0_0
   - 0.2036248882769328 edge_6_17_0_0 - 0.4165507835054667 edge_6_18_0_0
   - 0.7764244919983398 edge_6_20_0_0 + 0.4847357836747642 edge_6_21_0_0
   - 1.108410178379787 edge_6_24_0_0 + 0.4204165439493805 edge_6_26_0_0
   - 0.5028617422430212 edge_6_28_0_0 - 1.050084999098934 edge_6_29_0_0
   + 5.301645508875818 edge_6_32_0_0 + 0.4587733244189496 edge_8_3_0_0
   + 0.1497845549891799 edge_8_5_0_0 + 0.3281564124142086 edge_8_6_0_0
   + 1.343248311896817 edge_8_11_0_0 - 0.167903087759268 edge_8_26_0_0
   + 0.3301936775118241 edge_11_3_0_0 + 0.3710163831807006 edge_11_5_0_0
   - 0.1710048252294506 edge_11_6_0_0 + 2.124683150458174 edge_11_8_0_0
   - 0.2250168392903604 edge_11_12_0_0 + 0.0457946692280645 edge_11_13_0_0
   - 0.0461750483938701 edge_11_16_0_0 - 0.0769238819647359 edge_11_17_0_0
   + 0.9877558049089366 edge_11_18_0_0 - 0.487450194491354 edge_11_20_0_0
   + 0.6063612615804062 edge_11_21_0_0 - 1.261395170568793 edge_11_24_0_0
   + 0.269087017500538 edge_11_26_0_0 - 0.5585247869425307 edge_11_28_0_0
   - 1.251607061148767 edge_11_29_0_0 - 0.6730483880907374 edge_11_30_0_0
   - 2.115608364087123 edge_11_31_0_0 + 4.93314899221339 edge_11_32_0_0
   + 0.2212445019019069 edge_12_13_0_0 - 0.124098564802927 edge_12_16_0_0
   - 0.5393971599182118 edge_12_17_0_0 - 0.6702522872851376 edge_12_18_0_0
   - 0.5555887386913858 edge_12_28_0_0 - 0.0547480590533032 edge_13_8_0_0
   + 0.0468087449400744 edge_13_11_0_0 + 2.332969629164111 edge_13_12_0_0
   + 0.671322633509245 edge_13_16_0_0 + 0.4845207321367324 edge_13_17_0_0
   + 0.2865032161501195 edge_13_18_0_0 - 0.0917487076838537 edge_13_26_0_0
   + 0.1392904347747192 edge_16_12_0_0 + 0.3431804404310869 edge_16_13_0_0
   + 0.2411359730170827 edge_16_17_0_0 + 0.3323316615251673 edge_16_18_0_0
   + 0.3073956518637544 edge_17_12_0_0 + 0.3043420809618914 edge_17_13_0_0
   + 0.3915925039886422 edge_17_16_0_0 - 0.3275289028365967 edge_17_20_0_0
   - 0.235141198747019 edge_17_21_0_0 - 0.2926792304755423 edge_18_3_0_0
   - 1.061515483769042 edge_18_5_0_0 - 0.5813473412453726 edge_18_6_0_0
   - 0.4350438878633001 edge_18_8_0_0 + 0.7195408643993746 edge_18_12_0_0
   + 0.8832004923346066 edge_18_13_0_0 + 0.7919986331147307 edge_18_16_0_0
   + 3.080856664826712 edge_18_17_0_0 - 0.0426027956644115 edge_18_20_0_0
   + 0.2527793124353954 edge_18_21_0_0 - 0.3689032396372306 edge_18_24_0_0
   + 0.1582917548897527 edge_18_26_0_0 - 0.1951020396792112 edge_18_30_0_0
   + 1.16632485493151 edge_18_32_0_0 - 0.4769806527476653 edge_20_18_0_0
   - 0.3373332240338736 edge_20_21_0_0 - 0.5537265046384168 edge_20_24_0_0
   - 0.7117611915744202 edge_20_26_0_0 - 0.1133324125238347 edge_20_28_0_0
   - 0.8111498989471886 edge_20_29_0_0 - 0.6367481870116667 edge_21_3_0_0
   - 1.663756977285778 edge_21_5_0_0 - 0.9387712969209564 edge_21_8_0_0
   - 0.4653622355855707 edge_21_12_0_0 - 0.4172785959168104 edge_21_13_0_0
   - 0.0237782335722161 edge_21_16_0_0 - 0.31872185783887 edge_21_17_0_0
   - 0.3363208223279364 edge_21_18_0_0 + 0.5728780457680245 edge_21_20_0_0
   + 0.5021336566052395 edge_21_24_0_0 + 0.3510155774463366 edge_21_26_0_0
   - 0.2937780339856008 edge_21_28_0_0 - 0.6705983318925051 edge_21_29_0_0
   - 0.3950851856778376 edge_21_30_0_0 - 1.533625782142826 edge_21_31_0_0
   + 0.7286611038704526 edge_21_32_0_0 - 0.0613449279634757 edge_24_20_0_0
   + 0.4069659778380216 edge_24_21_0_0 + 0.1561407289420498 edge_24_26_0_0
   - 0.1020375193015058 edge_26_3_0_0 - 0.4295939778400192 edge_26_5_0_0
   - 0.323705967108895 edge_26_6_0_0 - 0.1775460254740724 edge_26_8_0_0
   - 0.1793641414531328 edge_26_11_0_0 + 0.229682893328665 edge_26_12_0_0
   + 0.1850104843511473 edge_26_13_0_0 + 0.34183988822958 edge_26_16_0_0
   + 0.06204596790125 edge_26_17_0_0 + 0.1416042486024955 edge_26_18_0_0
   + 0.5375963735738929 edge_26_20_0_0 + 1.042594159981596 edge_26_21_0_0
   + 1.922411296942567 edge_26_24_0_0 + 0.6157877388441317 edge_26_26_0_0
   + 0.045636511714952 edge_26_28_0_0 - 0.0615690929519522 edge_26_29_0_0
   + 0.0132576172497895 edge_26_30_0_0 + 0.00734686877962541 edge_26_31_0_0
   + 1.296892019790773 edge_26_32_0_0 + 0.5833225622440922 edge_28_28_0_0
   + 0.0926774411736113 edge_28_29_0_0 + 0.0192872878298344 edge_28_30_0_0
   - 0.0624766013174951 edge_28_31_0_0 + 0.0550838685958254 edge_29_28_0_0
   + 0.1912555205113122 edge_29_30_0_0 + 0.5544734857396224 edge_29_31_0_0
   + 0.0672036763100497 edge_30_28_0_0 + 0.1005690538942169 edge_30_29_0_0
   + 0.2437917421963961 edge_30_31_0_0 + 0.0340755875576221 edge_31_24_0_0
   - 0.5342972354012258 edge_31_26_0_0 + 0.5436347755739516 edge_31_28_0_0
   + 1.887838674499975 edge_31_29_0_0 + 0.3484427685401135 edge_31_30_0_0
   + 0.9286163426379248 edge_31_32_0_0 - 1.438382946699346 edge_32_31_0_0
Subject To
 one_parent_1: = 1
 consume_one_flow_unit_1: = 1
 one_parent_2: = 1
 consume_one_flow_unit_2: = 1
 one_parent_3: edge_0_3_0_0 + edge_5_3_0_0 + edge_6_3_0_0 + edge_8_3_0_0
   + edge_11_3_0_0 + edge_18_3_0_0 + edge_21_3_0_0 + edge_26_3_0_0 = 1
 consume_one_flow_unit_3: flow_0_3_0_0 - flow_3_5_0_0 - flow_3_6_0_0
   - flow_3_11_0_0 - flow_3_26_0_0 + flow_5_3_0_0 + flow_6_3_0_0
   + flow_8_3_0_0 + flow_11_3_0_0 + flow_18_3_0_0 + flow_21_3_0_0
   + flow_26_3_0_0 = 1
 one_parent_4: = 1
 consume_one_flow_unit_4: = 1
 one_parent_5: edge_0_5_0_0 + edge_3_5_0_0 + edge_6_5_0_0 + edge_8_5_0_0
   + edge_11_5_0_0 + edge_18_5_0_0 + edge_21_5_0_0 + edge_26_5_0_0 = 1
 consume_one_flow_unit_5: flow_0_5_0_0 + flow_3_5_0_0 - flow_5_3_0_0
   - flow_5_6_0_0 - flow_5_8_0_0 - flow_5_11_0_0 - flow_5_26_0_0
   - flow_5_32_0_0 + flow_6_5_0_0 + flow_8_5_0_0 + flow_11_5_0_0
   + flow_18_5_0_0 + flow_21_5_0_0 + flow_26_5_0_0 = 1
 one_parent_6: edge_0_6_0_0 + edge_3_6_0_0 + edge_5_6_0_0 + edge_8_6_0_0
   + edge_11_6_0_0 + edge_18_6_0_0 + edge_26_6_0_0 = 1
 consume_one_flow_unit_6: flow_0_6_0_0 + flow_3_6_0_0 + flow_5_6_0_0
   - flow_6_3_0_0 - flow_6_5_0_0 - flow_6_8_0_0 - flow_6_11_0_0
   - flow_6_13_0_0 - flow_6_16_0_0 - flow_6_17_0_0 - flow_6_18_0_0
   - flow_6_20_0_0 - flow_6_21_0_0 - flow_6_24_0_0 - flow_6_26_0_0
   - flow_6_28_0_0 - flow_6_29_0_0 - flow_6_32_0_0 + flow_8_6_0_0
   + flow_11_6_0_0 + flow_18_6_0_0 + flow_26_6_0_0 = 1
 one_parent_7: = 1
 consume_one_flow_unit_7: = 1
 one_parent_8: edge_5_8_0_0 + edge_6_8_0_0 + edge_11_8_0_0 + edge_13_8_0_0
   + edge_18_8_0_0 + edge_21_8_0_0 + edge_26_8_0_0 = 1
 consume_one_flow_unit_8: flow_5_8_0_0 + flow_6_8_0_0 - flow_8_3_0_0
   - flow_8_5_0_0 - flow_8_6_0_0 - flow_8_11_0_0 - flow_8_26_0_0
   + flow_11_8_0_0 + flow_13_8_0_0 + flow_18_8_0_0 + flow_21_8_0_0
   + flow_26_8_0_0 = 1
 one_parent_9: = 1
 consume_one_flow_unit_9: = 1
 one_parent_10: = 1
 consume_one_flow_unit_10: = 1
 one_parent_11: edge_0_11_0_0 + edge_3_11_0_0 + edge_5_11_0_0
   + edge_6_11_0_0 + edge_8_11_0_0 + edge_13_11_0_0 + edge_26_11_0_0 = 1
 consume_one_flow_unit_11: flow_0_11_0_0 + flow_3_11_0_0 + flow_5_11_0_0
   + flow_6_11_0_0 + flow_8_11_0_0 - flow_11_3_0_0 - flow_11_5_0_0
   - flow_11_6_0_0 - flow_11_8_0_0 - flow_11_12_0_0 - flow_11_13_0_0
   - flow_11_16_0_0 - flow_11_17_0_0 - flow_11_18_0_0 - flow_11_20_0_0
   - flow_11_21_0_0 - flow_11_24_0_0 - flow_11_26_0_0 - flow_11_28_0_0
   - flow_11_29_0_0 - flow_11_30_0_0 - flow_11_31_0_0 - flow_11_32_0_0
   + flow_13_11_0_0 + flow_26_11_0_0 = 1
 one_parent_12: edge_11_12_0_0 + edge_13_12_0_0 + edge_16_12_0_0
   + edge_17_12_0_0 + edge_18_12_0_0 + edge_21_12_0_0 + edge_26_12_0_0 = 1
 consume_one_flow_unit_12: flow_11_12_0_0 - flow_12_13_0_0 - flow_12_16_0_0
   - flow_12_17_0_0 - flow_12_18_0_0 - flow_12_28_0_0 + flow_13_12_0_0
   + flow_16_12_0_0 + flow_17_12_0_0 + flow_18_12_0_0 + flow_21_12_0_0
   + flow_26_12_0_0 = 1
 one_parent_13: edge_6_13_0_0 + edge_11_13_0_0 + edge_12_13_0_0
   + edge_16_13_0_0 + edge_17_13_0_0 + edge_18_13_0_0 + edge_21_13_0_0
   + edge_26_13_0_0 = 1
 consume_one_flow_unit_13: flow_6_13_0_0 + flow_11_13_0_0 + flow_12_13_0_0
   - flow_13_8_0_0 - flow_13_11_0_0 - flow_13_12_0_0 - flow_13_16_0_0
   - flow_13_17_0_0 - flow_13_18_0_0 - flow_13_26_0_0 + flow_16_13_0_0
   + flow_17_13_0_0 + flow_18_13_0_0 + flow_21_13_0_0 + flow_26_13_0_0 = 1
 one_parent_14: = 1
 consume_one_flow_unit_14: = 1
 one_parent_15: = 1
 consume_one_flow_unit_15: = 1
 one_parent_16: edge_6_16_0_0 + edge_11_16_0_0 + edge_12_16_0_0
   + edge_13_16_0_0 + edge_17_16_0_0 + edge_18_16_0_0 + edge_21_16_0_0
   + edge_26_16_0_0 = 1
 consume_one_flow_unit_16: flow_6_16_0_0 + flow_11_16_0_0 + flow_12_16_0_0
   + flow_13_16_0_0 - flow_16_12_0_0 - flow_16_13_0_0 - flow_16_17_0_0
   - flow_16_18_0_0 + flow_17_16_0_0 + flow_18_16_0_0 + flow_21_16_0_0
   + flow_26_16_0_0 = 1
 one_parent_17: edge_6_17_0_0 + edge_11_17_0_0 + edge_12_17_0_0
   + edge_13_17_0_0 + edge_16_17_0_0 + edge_18_17_0_0 + edge_21_17_0_0
   + edge_26_17_0_0 = 1
 consume_one_flow_unit_17: flow_6_17_0_0 + flow_11_17_0_0 + flow_12_17_0_0
   + flow_13_17_0_0 + flow_16_17_0_0 - flow_17_12_0_0 - flow_17_13_0_0
   - flow_17_16_0_0 - flow_17_20_0_0 - flow_17_21_0_0 + flow_18_17_0_0
   + flow_21_17_0_0 + flow_26_17_0_0 = 1
 one_parent_18: edge_6_18_0_0 + edge_11_18_0_0 + edge_12_18_0_0
   + edge_13_18_0_0 + edge_16_18_0_0 + edge_20_18_0_0 + edge_21_18_0_0
   + edge_26_18_0_0 = 1
 consume_one_flow_unit_18: flow_6_18_0_0 + flow_11_18_0_0 + flow_12_18_0_0
   + flow_13_18_0_0 + flow_16_18_0_0 - flow_18_3_0_0 - flow_18_5_0_0
   - flow_18_6_0_0 - flow_18_8_0_0 - flow_18_12_0_0 - flow_18_13_0_0
   - flow_18_16_0_0 - flow_18_17_0_0 - flow_18_20_0_0 - flow_18_21_0_0
   - flow_18_24_0_0 - flow_18_26_0_0 - flow_18_30_0_0 - flow_18_32_0_0
   + flow_20_18_0_0 + flow_21_18_0_0 + flow_26_18_0_0 = 1
 one_parent_19: = 1
 consume_one_flow_unit_19: = 1
 one_parent_20: edge_6_20_0_0 + edge_11_20_0_0 + edge_17_20_0_0
   + edge_18_20_0_0 + edge_21_20_0_0 + edge_24_20_0_0 + edge_26_20_0_0 = 1
 consume_one_flow_unit_20: flow_6_20_0_0 + flow_11_20_0_0 + flow_17_20_0_0
   + flow_18_20_0_0 - flow_20_18_0_0 - flow_20_21_0_0 - flow_20_24_0_0
   - flow_20_26_0_0 - flow_20_28_0_0 - flow_20_29_0_0 + flow_21_20_0_0
   + flow_24_20_0_0 + flow_26_20_0_0 = 1
 one_parent_21: edge_6_21_0_0 + edge_11_21_0_0 + edge_17_21_0_0
   + edge_18_21_0_0 + edge_20_21_0_0 + edge_24_21_0_0 + edge_26_21_0_0 = 1
 consume_one_flow_unit_21: flow_6_21_0_0 + flow_11_21_0_0 + flow_17_21_0_0
   + flow_18_21_0_0 + flow_20_21_0_0 - flow_21_3_0_0 - flow_21_5_0_0
   - flow_21_8_0_0 - flow_21_12_0_0 - flow_21_13_0_0 - flow_21_16_0_0
   - flow_21_17_0_0 - flow_21_18_0_0 - flow_21_20_0_0 - flow_21_24_0_0
   - flow_21_26_0_0 - flow_21_28_0_0 - flow_21_29_0_0 - flow_21_30_0_0
   - flow_21_31_0_0 - flow_21_32_0_0 + flow_24_21_0_0 + flow_26_21_0_0 = 1
 one_parent_22: = 1
 consume_one_flow_unit_22: = 1
 one_parent_23: = 1
 consume_one_flow_unit_23: = 1
 one_parent_24: edge_6_24_0_0 + edge_11_24_0_0 + edge_18_24_0_0
   + edge_20_24_0_0 + edge_21_24_0_0 + edge_26_24_0_0 + edge_31_24_0_0 = 1
 consume_one_flow_unit_24: flow_6_24_0_0 + flow_11_24_0_0 + flow_18_24_0_0
   + flow_20_24_0_0 + flow_21_24_0_0 - flow_24_20_0_0 - flow_24_21_0_0
   - flow_24_26_0_0 + flow_26_24_0_0 + flow_31_24_0_0 = 1
 one_parent_25: = 1
 consume_one_flow_unit_25: = 1
 one_parent_26: edge_3_26_0_0 + edge_5_26_0_0 + edge_6_26_0_0
   + edge_8_26_0_0 + edge_11_26_0_0 + edge_13_26_0_0 + edge_18_26_0_0
   + edge_20_26_0_0 + edge_21_26_0_0 + edge_24_26_0_0 + edge_26_26_0_0
   + edge_31_26_0_0 = 1
 consume_one_flow_unit_26: flow_3_26_0_0 + flow_5_26_0_0 + flow_6_26_0_0
   + flow_8_26_0_0 + flow_11_26_0_0 + flow_13_26_0_0 + flow_18_26_0_0
   + flow_20_26_0_0 + flow_21_26_0_0 + flow_24_26_0_0 - flow_26_3_0_0
   - flow_26_5_0_0 - flow_26_6_0_0 - flow_26_8_0_0 - flow_26_11_0_0
   - flow_26_12_0_0 - flow_26_13_0_0 - flow_26_16_0_0 - flow_26_17_0_0
   - flow_26_18_0_0 - flow_26_20_0_0 - flow_26_21_0_0 - flow_26_24_0_0
   - flow_26_28_0_0 - flow_26_29_0_0 - flow_26_30_0_0 - flow_26_31_0_0
   - flow_26_32_0_0 + flow_31_26_0_0 = 1
 one_parent_27: = 1
 consume_one_flow_unit_27: = 1
 one_parent_28: edge_6_28_0_0 + edge_11_28_0_0 + edge_12_28_0_0
   + edge_20_28_0_0 + edge_21_28_0_0 + edge_26_28_0_0 + edge_28_28_0_0
   + edge_29_28_0_0 + edge_30_28_0_0 + edge_31_28_0_0 = 1
 consume_one_flow_unit_28: flow_6_28_0_0 + flow_11_28_0_0 + flow_12_28_0_0
   + flow_20_28_0_0 + flow_21_28_0_0 + flow_26_28_0_0 - flow_28_29_0_0
   - flow_28_30_0_0 - flow_28_31_0_0 + flow_29_28_0_0 + flow_30_28_0_0
   + flow_31_28_0_0 = 1
 one_parent_29: edge_6_29_0_0 + edge_11_29_0_0 + edge_20_29_0_0
   + edge_21_29_0_0 + edge_26_29_0_0 + edge_28_29_0_0 + edge_30_29_0_0
   + edge_31_29_0_0 = 1
 consume_one_flow_unit_29: flow_6_29_0_0 + flow_11_29_0_0 + flow_20_29_0_0
   + flow_21_29_0_0 + flow_26_29_0_0 + flow_28_29_0_0 - flow_29_28_0_0
   - flow_29_30_0_0 - flow_29_31_0_0 + flow_30_29_0_0 + flow_31_29_0_0 = 1
 one_parent_30: edge_11_30_0_0 + edge_18_30_0_0 + edge_21_30_0_0
   + edge_26_30_0_0 + edge_28_30_0_0 + edge_29_30_0_0 + edge_31_30_0_0 = 1
 consume_one_flow_unit_30: flow_11_30_0_0 + flow_18_30_0_0 + flow_21_30_0_0
   + flow_26_30_0_0 + flow_28_30_0_0 + flow_29_30_0_0 - flow_30_28_0_0
   - flow_30_29_0_0 - flow_30_31_0_0 + flow_31_30_0_0 = 1
 one_parent_31: edge_11_31_0_0 + edge_21_31_0_0 + edge_26_31_0_0
   + edge_28_31_0_0 + edge_29_31_0_0 + edge_30_31_0_0 + edge_32_31_0_0 = 1
 consume_one_flow_unit_31: flow_11_31_0_0 + flow_21_31_0_0 + flow_26_31_0_0
   + flow_28_31_0_0 + flow_29_31_0_0 + flow_30_31_0_0 - flow_31_24_0_0
   - flow_31_26_0_0 - flow_31_28_0_0 - flow_31_29_0_0 - flow_31_30_0_0
   - flow_31_32_0_0 + flow_32_31_0_0 = 1
 one_parent_32: edge_5_32_0_0 + edge_6_32_0_0 + edge_11_32_0_0
   + edge_18_32_0_0 + edge_21_32_0_0 + edge_26_32_0_0 + edge_31_32_0_0 = 1
 consume_one_flow_unit_32: flow_5_32_0_0 + flow_6_32_0_0 + flow_11_32_0_0
   + flow_18_32_0_0 + flow_21_32_0_0 + flow_26_32_0_0 + flow_31_32_0_0
   - flow_32_31_0_0 = 1
 root_flow: flow_0_3_0_0 + flow_0_5_0_0 + flow_0_6_0_0 + flow_0_11_0_0
   = 32
 inactive_no_flow_0_3_0_0: flow_0_3_0_0 - 1000 edge_0_3_0_0 <= 0
 inactive_no_flow_0_5_0_0: flow_0_5_0_0 - 1000 edge_0_5_0_0 <= 0
 inactive_no_flow_0_6_0_0: flow_0_6_0_0 - 1000 edge_0_6_0_0 <= 0
 inactive_no_flow_0_11_0_0: flow_0_11_0_0 - 1000 edge_0_11_0_0 <= 0
 inactive_no_flow_3_5_0_0: flow_3_5_0_0 - 1000 edge_3_5_0_0 <= 0
 inactive_no_flow_3_6_0_0: flow_3_6_0_0 - 1000 edge_3_6_0_0 <= 0
 inactive_no_flow_3_11_0_0: flow_3_11_0_0 - 1000 edge_3_11_0_0 <= 0
 inactive_no_flow_3_26_0_0: flow_3_26_0_0 - 1000 edge_3_26_0_0 <= 0
 inactive_no_flow_5_3_0_0: flow_5_3_0_0 - 1000 edge_5_3_0_0 <= 0
 inactive_no_flow_5_6_0_0: flow_5_6_0_0 - 1000 edge_5_6_0_0 <= 0
 inactive_no_flow_5_8_0_0: flow_5_8_0_0 - 1000 edge_5_8_0_0 <= 0
 inactive_no_flow_5_11_0_0: flow_5_11_0_0 - 1000 edge_5_11_0_0 <= 0
 inactive_no_flow_5_26_0_0: flow_5_26_0_0 - 1000 edge_5_26_0_0 <= 0
 inactive_no_flow_5_32_0_0: flow_5_32_0_0 - 1000 edge_5_32_0_0 <= 0
 inactive_no_flow_6_3_0_0: flow_6_3_0_0 - 1000 edge_6_3_0_0 <= 0
 inactive_no_flow_6_5_0_0: flow_6_5_0_0 - 1000 edge_6_5_0_0 <= 0
 inactive_no_flow_6_8_0_0: flow_6_8_0_0 - 1000 edge_6_8_0_0 <= 0
 inactive_no_flow_6_11_0_0: flow_6_11_0_0 - 1000 edge_6_11_0_0 <= 0
 inactive_no_flow_6_13_0_0: flow_6_13_0_0 - 1000 edge_6_13_0_0 <= 0
 inactive_no_flow_6_16_0_0: flow_6_16_0_0 - 1000 edge_6_16_0_0 <= 0
 inactive_no_flow_6_17_0_0: flow_6_17_0_0 - 1000 edge_6_17_0_0 <= 0
 inactive_no_flow_6_18_0_0: flow_6_18_0_0 - 1000 edge_6_18_0_0 <= 0
 inactive_no_flow_6_20_0_0: flow_6_20_0_0 - 1000 edge_6_20_0_0 <= 0
 inactive_no_flow_6_21_0_0: flow_6_21_0_0 - 1000 edge_6_21_0_0 <= 0
 inactive_no_flow_6_24_0_0: flow_6_24_0_0 - 1000 edge_6_24_0_0 <= 0
 inactive_no_flow_6_26_0_0: flow_6_26_0_0 - 1000 edge_6_26_0_0 <= 0
 inactive_no_flow_6_28_0_0: flow_6_28_0_0 - 1000 edge_6_28_0_0 <= 0
 inactive_no_flow_6_29_0_0: flow_6_29_0_0 - 1000 edge_6_29_0_0 <= 0
 inactive_no_flow_6_32_0_0: flow_6_32_0_0 - 1000 edge_6_32_0_0 <= 0
 inactive_no_flow_8_3_0_0: flow_8_3_0_0 - 1000 edge_8_3_0_0 <= 0
 inactive_no_flow_8_5_0_0: flow_8_5_0_0 - 1000 edge_8_5_0_0 <= 0
 inactive_no_flow_8_6_0_0: flow_8_6_0_0 - 1000 edge_8_6_0_0 <= 0
 inactive_no_flow_8_11_0_0: flow_8_11_0_0 - 1000 edge_8_11_0_0 <= 0
 inactive_no_flow_8_26_0_0: flow_8_26_0_0 - 1000 edge_8_26_0_0 <= 0
 inactive_no_flow_11_3_0_0: flow_11_3_0_0 - 1000 edge_11_3_0_0 <= 0
 inactive_no_flow_11_5_0_0: flow_11_5_0_0 - 1000 edge_11_5_0_0 <= 0
 inactive_no_flow_11_6_0_0: flow_11_6_0_0 - 1000 edge_11_6_0_0 <= 0
 inactive_no_flow_11_8_0_0: flow_11_8_0_0 - 1000 edge_11_8_0_0 <= 0
 inactive_no_flow_11_12_0_0: flow_11_12_0_0 - 1000 edge_11_12_0_0 <= 0
 inactive_no_flow_11_13_0_0: flow_11_13_0_0 - 1000 edge_11_13_0_0 <= 0
 inactive_no_flow_11_16_0_0: flow_11_16_0_0 - 1000 edge_11_16_0_0 <= 0
 inactive_no_flow_11_17_0_0: flow_11_17_0_0 - 1000 edge_11_17_0_0 <= 0
 inactive_no_flow_11_18_0_0: flow_11_18_0_0 - 1000 edge_11_18_0_0 <= 0
 inactive_no_flow_11_20_0_0: flow_11_20_0_0 - 1000 edge_11_20_0_0 <= 0
 inactive_no_flow_11_21_0_0: flow_11_21_0_0 - 1000 edge_11_21_0_0 <= 0
 inactive_no_flow_11_24_0_0: flow_11_24_0_0 - 1000 edge_11_24_0_0 <= 0
 inactive_no_flow_11_26_0_0: flow_11_26_0_0 - 1000 edge_11_26_0_0 <= 0
 inactive_no_flow_11_28_0_0: flow_11_28_0_0 - 1000 edge_11_28_0_0 <= 0
 inactive_no_flow_11_29_0_0: flow_11_29_0_0 - 1000 edge_11_29_0_0 <= 0
 inactive_no_flow_11_30_0_0: flow_11_30_0_0 - 1000 edge_11_30_0_0 <= 0
 inactive_no_flow_11_31_0_0: flow_11_31_0_0 - 1000 edge_11_31_0_0 <= 0
 inactive_no_flow_11_32_0_0: flow_11_32_0_0 - 1000 edge_11_32_0_0 <= 0
 inactive_no_flow_12_13_0_0: flow_12_13_0_0 - 1000 edge_12_13_0_0 <= 0
 inactive_no_flow_12_16_0_0: flow_12_16_0_0 - 1000 edge_12_16_0_0 <= 0
 inactive_no_flow_12_17_0_0: flow_12_17_0_0 - 1000 edge_12_17_0_0 <= 0
 inactive_no_flow_12_18_0_0: flow_12_18_0_0 - 1000 edge_12_18_0_0 <= 0
 inactive_no_flow_12_28_0_0: flow_12_28_0_0 - 1000 edge_12_28_0_0 <= 0
 inactive_no_flow_13_8_0_0: flow_13_8_0_0 - 1000 edge_13_8_0_0 <= 0
 inactive_no_flow_13_11_0_0: flow_13_11_0_0 - 1000 edge_13_11_0_0 <= 0
 inactive_no_flow_13_12_0_0: flow_13_12_0_0 - 1000 edge_13_12_0_0 <= 0
 inactive_no_flow_13_16_0_0: flow_13_16_0_0 - 1000 edge_13_16_0_0 <= 0
 inactive_no_flow_13_17_0_0: flow_13_17_0_0 - 1000 edge_13_17_0_0 <= 0
 inactive_no_flow_13_18_0_0: flow_13_18_0_0 - 1000 edge_13_18_0_0 <= 0
 inactive_no_flow_13_26_0_0: flow_13_26_0_0 - 1000 edge_13_26_0_0 <= 0
 inactive_no_flow_16_12_0_0: flow_16_12_0_0 - 1000 edge_16_12_0_0 <= 0
 inactive_no_flow_16_13_0_0: flow_16_13_0_0 - 1000 edge_16_13_0_0 <= 0
 inactive_no_flow_16_17_0_0: flow_16_17_0_0 - 1000 edge_16_17_0_0 <= 0
 inactive_no_flow_16_18_0_0: flow_16_18_0_0 - 1000 edge_16_18_0_0 <= 0
 inactive_no_flow_17_12_0_0: flow_17_12_0_0 - 1000 edge_17_12_0_0 <= 0
 inactive_no_flow_17_13_0_0: flow_17_13_0_0 - 1000 edge_17_13_0_0 <= 0
 inactive_no_flow_17_16_0_0: flow_17_16_0_0 - 1000 edge_17_16_0_0 <= 0
 inactive_no_flow_17_20_0_0: flow_17_20_0_0 - 1000 edge_17_20_0_0 <= 0
 inactive_no_flow_17_21_0_0: flow_17_21_0_0 - 1000 edge_17_21_0_0 <= 0
 inactive_no_flow_18_3_0_0: flow_18_3_0_0 - 1000 edge_18_3_0_0 <= 0
 inactive_no_flow_18_5_0_0: flow_18_5_0_0 - 1000 edge_18_5_0_0 <= 0
 inactive_no_flow_18_6_0_0: flow_18_6_0_0 - 1000 edge_18_6_0_0 <= 0
 inactive_no_flow_18_8_0_0: flow_18_8_0_0 - 1000 edge_18_8_0_0 <= 0
 inactive_no_flow_18_12_0_0: flow_18_12_0_0 - 1000 edge_18_12_0_0 <= 0
 inactive_no_flow_18_13_0_0: flow_18_13_0_0 - 1000 edge_18_13_0_0 <= 0
 inactive_no_flow_18_16_0_0: flow_18_16_0_0 - 1000 edge_18_16_0_0 <= 0
 inactive_no_flow_18_17_0_0: flow_18_17_0_0 - 1000 edge_18_17_0_0 <= 0
 inactive_no_flow_18_20_0_0: flow_18_20_0_0 - 1000 edge_18_20_0_0 <= 0
 inactive_no_flow_18_21_0_0: flow_18_21_0_0 - 1000 edge_18_21_0_0 <= 0
 inactive_no_flow_18_24_0_0: flow_18_24_0_0 - 1000 edge_18_24_0_0 <= 0
 inactive_no_flow_18_26_0_0: flow_18_26_0_0 - 1000 edge_18_26_0_0 <= 0
 inactive_no_flow_18_30_0_0: flow_18_30_0_0 - 1000 edge_18_30_0_0 <= 0
 inactive_no_flow_18_32_0_0: flow_18_32_0_0 - 1000 edge_18_32_0_0 <= 0
 inactive_no_flow_20_18_0_0: flow_20_18_0_0 - 1000 edge_20_18_0_0 <= 0
 inactive_no_flow_20_21_0_0: flow_20_21_0_0 - 1000 edge_20_21_0_0 <= 0
 inactive_no_flow_20_24_0_0: flow_20_24_0_0 - 1000 edge_20_24_0_0 <= 0
 inactive_no_flow_20_26_0_0: flow_20_26_0_0 - 1000 edge_20_26_0_0 <= 0
 inactive_no_flow_20_28_0_0: flow_20_28_0_0 - 1000 edge_20_28_0_0 <= 0
 inactive_no_flow_20_29_0_0: flow_20_29_0_0 - 1000 edge_20_29_0_0 <= 0
 inactive_no_flow_21_3_0_0: flow_21_3_0_0 - 1000 edge_21_3_0_0 <= 0
 inactive_no_flow_21_5_0_0: flow_21_5_0_0 - 1000 edge_21_5_0_0 <= 0
 inactive_no_flow_21_8_0_0: flow_21_8_0_0 - 1000 edge_21_8_0_0 <= 0
 inactive_no_flow_21_12_0_0: flow_21_12_0_0 - 1000 edge_21_12_0_0 <= 0
 inactive_no_flow_21_13_0_0: flow_21_13_0_0 - 1000 edge_21_13_0_0 <= 0
 inactive_no_flow_21_16_0_0: flow_21_16_0_0 - 1000 edge_21_16_0_0 <= 0
 inactive_no_flow_21_17_0_0: flow_21_17_0_0 - 1000 edge_21_17_0_0 <= 0
 inactive_no_flow_21_18_0_0: flow_21_18_0_0 - 1000 edge_21_18_0_0 <= 0
 inactive_no_flow_21_20_0_0: flow_21_20_0_0 - 1000 edge_21_20_0_0 <= 0
 inactive_no_flow_21_24_0_0: flow_21_24_0_0 - 1000 edge_21_24_0_0 <= 0
 inactive_no_flow_21_26_0_0: flow_21_26_0_0 - 1000 edge_21_26_0_0 <= 0
 inactive_no_flow_21_28_0_0: flow_21_28_0_0 - 1000 edge_21_28_0_0 <= 0
 inactive_no_flow_21_29_0_0: flow_21_29_0_0 - 1000 edge_21_29_0_0 <= 0
 inactive_no_flow_21_30_0_0: flow_21_30_0_0 - 1000 edge_21_30_0_0 <= 0
 inactive_no_flow_21_31_0_0: flow_21_31_0_0 - 1000 edge_21_31_0_0 <= 0
 inactive_no_flow_21_32_0_0: flow_21_32_0_0 - 1000 edge_21_32_0_0 <= 0
 inactive_no_flow_24_20_0_0: flow_24_20_0_0 - 1000 edge_24_20_0_0 <= 0
 inactive_no_flow_24_21_0_0: flow_24_21_0_0 - 1000 edge_24_21_0_0 <= 0
 inactive_no_flow_24_26_0_0: flow_24_26_0_0 - 1000 edge_24_26_0_0 <= 0
 inactive_no_flow_26_3_0_0: flow_26_3_0_0 - 1000 edge_26_3_0_0 <= 0
 inactive_no_flow_26_5_0_0: flow_26_5_0_0 - 1000 edge_26_5_0_0 <= 0
 inactive_no_flow_26_6_0_0: flow_26_6_0_0 - 1000 edge_26_6_0_0 <= 0
 inactive_no_flow_26_8_0_0: flow_26_8_0_0 - 1000 edge_26_8_0_0 <= 0
 inactive_no_flow_26_11_0_0: flow_26_11_0_0 - 1000 edge_26_11_0_0 <= 0
 inactive_no_flow_26_12_0_0: flow_26_12_0_0 - 1000 edge_26_12_0_0 <= 0
 inactive_no_flow_26_13_0_0: flow_26_13_0_0 - 1000 edge_26_13_0_0 <= 0
 inactive_no_flow_26_16_0_0: flow_26_16_0_0 - 1000 edge_26_16_0_0 <= 0
 inactive_no_flow_26_17_0_0: flow_26_17_0_0 - 1000 edge_26_17_0_0 <= 0
 inactive_no_flow_26_18_0_0: flow_26_18_0_0 - 1000 edge_26_18_0_0 <= 0
 inactive_no_flow_26_20_0_0: flow_26_20_0_0 - 1000 edge_26_20_0_0 <= 0
 inactive_no_flow_26_21_0_0: flow_26_21_0_0 - 1000 edge_26_21_0_0 <= 0
 inactive_no_flow_26_24_0_0: flow_26_24_0_0 - 1000 edge_26_24_0_0 <= 0
 inactive_no_flow_26_26_0_0: flow_26_26_0_0 - 1000 edge_26_26_0_0 <= 0
 inactive_no_flow_26_28_0_0: flow_26_28_0_0 - 1000 edge_26_28_0_0 <= 0
 inactive_no_flow_26_29_0_0: flow_26_29_0_0 - 1000 edge_26_29_0_0 <= 0
 inactive_no_flow_26_30_0_0: flow_26_30_0_0 - 1000 edge_26_30_0_0 <= 0
 inactive_no_flow_26_31_0_0: flow_26_31_0_0 - 1000 edge_26_31_0_0 <= 0
 inactive_no_flow_26_32_0_0: flow_26_32_0_0 - 1000 edge_26_32_0_0 <= 0
 inactive_no_flow_28_28_0_0: flow_28_28_0_0 - 1000 edge_28_28_0_0 <= 0
 inactive_no_flow_28_29_0_0: flow_28_29_0_0 - 1000 edge_28_29_0_0 <= 0
 inactive_no_flow_28_30_0_0: flow_28_30_0_0 - 1000 edge_28_30_0_0 <= 0
 inactive_no_flow_28_31_0_0: flow_28_31_0_0 - 1000 edge_28_31_0_0 <= 0
 inactive_no_flow_29_28_0_0: flow_29_28_0_0 - 1000 edge_29_28_0_0 <= 0
 inactive_no_flow_29_30_0_0: flow_29_30_0_0 - 1000 edge_29_30_0_0 <= 0
 inactive_no_flow_29_31_0_0: flow_29_31_0_0 - 1000 edge_29_31_0_0 <= 0
 inactive_no_flow_30_28_0_0: flow_30_28_0_0 - 1000 edge_30_28_0_0 <= 0
 inactive_no_flow_30_29_0_0: flow_30_29_0_0 - 1000 edge_30_29_0_0 <= 0
 inactive_no_flow_30_31_0_0: flow_30_31_0_0 - 1000 edge_30_31_0_0 <= 0
 inactive_no_flow_31_24_0_0: flow_31_24_0_0 - 1000 edge_31_24_0_0 <= 0
 inactive_no_flow_31_26_0_0: flow_31_26_0_0 - 1000 edge_31_26_0_0 <= 0
 inactive_no_flow_31_28_0_0: flow_31_28_0_0 - 1000 edge_31_28_0_0 <= 0
 inactive_no_flow_31_29_0_0: flow_31_29_0_0 - 1000 edge_31_29_0_0 <= 0
 inactive_no_flow_31_30_0_0: flow_31_30_0_0 - 1000 edge_31_30_0_0 <= 0
 inactive_no_flow_31_32_0_0: flow_31_32_0_0 - 1000 edge_31_32_0_0 <= 0
 inactive_no_flow_32_31_0_0: flow_32_31_0_0 - 1000 edge_32_31_0_0 <= 0
Bounds
Binaries
 edge_0_3_0_0 edge_0_5_0_0 edge_0_6_0_0 edge_0_11_0_0 edge_3_5_0_0
 edge_3_6_0_0 edge_3_11_0_0 edge_3_26_0_0 edge_5_3_0_0 edge_5_6_0_0
 edge_5_8_0_0 edge_5_11_0_0 edge_5_26_0_0 edge_5_32_0_0 edge_6_3_0_0
 edge_6_5_0_0 edge_6_8_0_0 edge_6_11_0_0 edge_6_13_0_0 edge_6_16_0_0
 edge_6_17_0_0 edge_6_18_0_0 edge_6_20_0_0 edge_6_21_0_0 edge_6_24_0_0
 edge_6_26_0_0 edge_6_28_0_0 edge_6_29_0_0 edge_6_32_0_0 edge_8_3_0_0
 edge_8_5_0_0 edge_8_6_0_0 edge_8_11_0_0 edge_8_26_0_0 edge_11_3_0_0
 edge_11_5_0_0 edge_11_6_0_0 edge_11_8_0_0 edge_11_12_0_0 edge_11_13_0_0
 edge_11_16_0_0 edge_11_17_0_0 edge_11_18_0_0 edge_11_20_0_0 edge_11_21_0_0
 edge_11_24_0_0 edge_11_26_0_0 edge_11_28_0_0 edge_11_29_0_0 edge_11_30_0_0
 edge_11_31_0_0 edge_11_32_0_0 edge_12_13_0_0 edge_12_16_0_0 edge_12_17_0_0
 edge_12_18_0_0 edge_12_28_0_0 edge_13_8_0_0 edge_13_11_0_0 edge_13_12_0_0
 edge_13_16_0_0 edge_13_17_0_0 edge_13_18_0_0 edge_13_26_0_0 edge_16_12_0_0
 edge_16_13_0_0 edge_16_17_0_0 edge_16_18_0_0 edge_17_12_0_0 edge_17_13_0_0
 edge_17_16_0_0 edge_17_20_0_0 edge_17_21_0_0 edge_18_3_0_0 edge_18_5_0_0
 edge_18_6_0_0 edge_18_8_0_0 edge_18_12_0_0 edge_18_13_0_0 edge_18_16_0_0
 edge_18_17_0_0 edge_18_20_0_0 edge_18_21_0_0 edge_18_24_0_0 edge_18_26_0_0
 edge_18_30_0_0 edge_18_32_0_0 edge_20_18_0_0 edge_20_21_0_0 edge_20_24_0_0
 edge_20_26_0_0 edge_20_28_0_0 edge_20_29_0_0 edge_21_3_0_0 edge_21_5_0_0
 edge_21_8_0_0 edge_21_12_0_0 edge_21_13_0_0 edge_21_16_0_0 edge_21_17_0_0
 edge_21_18_0_0 edge_21_20_0_0 edge_21_24_0_0 edge_21_26_0_0 edge_21_28_0_0
 edge_21_29_0_0 edge_21_30_0_0 edge_21_31_0_0 edge_21_32_0_0 edge_24_20_0_0
 edge_24_21_0_0 edge_24_26_0_0 edge_26_3_0_0 edge_26_5_0_0 edge_26_6_0_0
 edge_26_8_0_0 edge_26_11_0_0 edge_26_12_0_0 edge_26_13_0_0 edge_26_16_0_0
 edge_26_17_0_0 edge_26_18_0_0 edge_26_20_0_0 edge_26_21_0_0 edge_26_24_0_0
 edge_26_26_0_0 edge_26_28_0_0 edge_26_29_0_0 edge_26_30_0_0 edge_26_31_0_0
 edge_26_32_0_0 edge_28_28_0_0 edge_28_29_0_0 edge_28_30_0_0 edge_28_31_0_0
 edge_29_28_0_0 edge_29_30_0_0 edge_29_31_0_0 edge_30_28_0_0 edge_30_29_0_0
 edge_30_31_0_0 edge_31_24_0_0 edge_31_26_0_0 edge_31_28_0_0 edge_31_29_0_0
 edge_31_30_0_0 edge_31_32_0_0 edge_32_31_0_0
End
